c Sudoku solution
p cnf 729 0
118 0
179 0
215 0
233 0
336 0
349 0
229 0
373 0
421 0
462 0
493 0
559 0
578 0
582 0
625 0
667 0
671 0
689 0
732 0
612 0
847 0
855 0
935 0
861 0
131 0
541 0
943 0
952 0
653 0
163 0
988 0
996 0
911 0
969 0
694 0
638 0
646 0
828 0
816 0
883 0
526 0
513 0
723 0
748 0
458 0
766 0
754 0
974 0
872 0
899 0
719 0
927 0
834 0
439 0
317 0
351 0
414 0
537 0
445 0
564 0
595 0
365 0
268 0
398 0
322 0
124 0
142 0
244 0
384 0
292 0
281 0
775 0
787 0
791 0
185 0
197 0
276 0
156 0
257 0
477 0
486 0
